120
150
53
50
54
48
52
55
43
47
48
51
46
60
53
40
50
50
45
55
48
58
59
48
52
49
56
53
55
50
52
49
43
41
52
50
58
59
50
52
58
57
40
52
42
41
54
41
55
60
41
46
46
53
57
59
50
52
48
50
58
48
52
56
45
59
48
52
55
44
45
60
44
55
45
41
50
45
50
43
50
52
50
52
53
50
53
55
52
57
59
50
50
46
42
41
41
50
47
43
54
52
42
50
53
45
60
44
54
40
52
52
55
59
45
43
48
46
47
44
55
52
